Minimize
	value: tt

Subject to
tt + 2000 s_1_1 > 0
tt - t_1_1 - 2003.000000 s_1_1 + 3.000000 s_1_6 > -1989.228222
tt + 2000 s_2_1 > 0
tt - t_2_1 - 2003.000000 s_2_1 + 3.000000 s_2_6 > -1987.985400
tt + 2000 s_1_2 > 0
tt - t_1_2 - 2003.000000 s_1_2 + 3.000000 s_1_7 > -1988.783756
tt + 2000 s_2_2 > 0
tt - t_2_2 - 2003.000000 s_2_2 + 3.000000 s_2_7 > -1987.809000
tt + 2000 s_1_3 > 0
tt - t_1_3 - 2003.000000 s_1_3 + 3.000000 s_1_7 > -1982.336800
tt + 2000 s_2_3 > 0
tt - t_2_3 - 2003.000000 s_2_3 + 3.000000 s_2_7 > -1983.285600
tt + 2000 s_1_4 > 0
tt - t_1_4 - 2012.000000 s_1_4 + 12.000000 s_1_3 > -1990.785744
tt + 2000 s_2_4 > 0
tt - t_2_4 - 2012.000000 s_2_4 + 12.000000 s_2_3 > -1988.013400
tt + 2000 s_1_5 > 0
tt - t_1_5 - 2012.000000 s_1_5 + 12.000000 s_1_7 > -1986.049900
tt + 2000 s_2_5 > 0
tt - t_2_5 - 2012.000000 s_2_5 + 12.000000 s_2_7 > -1987.451600
tt + 2000 s_1_6 > 0
tt - t_1_6 - 2000.000000 s_1_6 > -1960.371100
tt + 2000 s_2_6 > 0
tt - t_2_6 - 2000.000000 s_2_6 > -1984.965700
tt + 2000 s_1_7 > 0
tt - t_1_7 - 2000.000000 s_1_7 > -1961.027400
tt + 2000 s_2_7 > 0
tt - t_2_7 - 2000.000000 s_2_7 > -1984.984800
tt + 2000 s_1_8 > 0
tt - t_1_8 - 2075.000000 s_1_8 + 75.000000 s_1_3 > -1998.684100
tt + 2000 s_2_8 > 0
tt - t_2_8 - 2075.000000 s_2_8 + 75.000000 s_2_3 > -1996.542400
s_1_1 + s_2_1  = 1
s_1_2 + s_2_2  = 1
s_1_3 + s_2_3  = 1
s_1_4 + s_2_4  = 1
s_1_5 + s_2_5  = 1
s_1_6 + s_2_6  = 1
s_1_7 + s_2_7  = 1
s_1_8 + s_2_8  = 1
t_1_1 - t_1_2 + 2000.000000 u_1_1_2 - 3.000000 s_1_2 + 3.000000 s_1_7 > 11.216244
t_1_2 - t_1_1 - 2000.000000 u_1_1_2 > -1989.228222
t_2_1 - t_2_2 + 2000.000000 u_2_1_2 - 3.000000 s_2_2 + 3.000000 s_2_7 > 12.191000
t_2_2 - t_2_1 - 2000.000000 u_2_1_2 > -1987.985400
t_1_1 - t_1_3 + 2000.000000 u_1_1_3 - 3.000000 s_1_3 + 3.000000 s_1_7 > 17.663200
t_1_3 - t_1_1 - 2000.000000 u_1_1_3 > -1989.228222
t_2_1 - t_2_3 + 2000.000000 u_2_1_3 - 3.000000 s_2_3 + 3.000000 s_2_7 > 16.714400
t_2_3 - t_2_1 - 2000.000000 u_2_1_3 > -1987.985400
t_1_1 - t_1_4 + 2000.000000 u_1_1_4 - 6.000000 s_1_4 + 6.000000 s_1_3 > 9.214256
t_1_4 - t_1_1 - 2000.000000 u_1_1_4 > -1989.228222
t_2_1 - t_2_4 + 2000.000000 u_2_1_4 - 6.000000 s_2_4 + 6.000000 s_2_3 > 11.986600
t_2_4 - t_2_1 - 2000.000000 u_2_1_4 > -1987.985400
t_1_1 - t_1_5 + 2000.000000 u_1_1_5 - 6.000000 s_1_5 + 6.000000 s_1_7 > 13.950100
t_1_5 - t_1_1 - 2000.000000 u_1_1_5 > -1989.228222
t_2_1 - t_2_5 + 2000.000000 u_2_1_5 - 6.000000 s_2_5 + 6.000000 s_2_7 > 12.548400
t_2_5 - t_2_1 - 2000.000000 u_2_1_5 > -1987.985400
t_1_1 - t_1_6 - 2000.000000 s_1_6 > -1957.371100
t_1_1 - t_2_6 - 2000.000000 s_2_6 > -1981.965700
t_2_1 - t_1_6 - 2000.000000 s_1_6 > -1957.371100
t_2_1 - t_2_6 - 2000.000000 s_2_6 > -1981.965700
t_1_1 - t_1_7 + 2000.000000 u_1_1_7 > 38.972600
t_1_7 - t_1_1 - 2000.000000 u_1_1_7 > -1989.228222
t_2_1 - t_2_7 + 2000.000000 u_2_1_7 > 15.015200
t_2_7 - t_2_1 - 2000.000000 u_2_1_7 > -1987.985400
t_1_8 - t_1_1 - 2000.000000 s_1_1 > -1986.228222
t_1_8 - t_2_1 - 2000.000000 s_2_1 > -1984.985400
t_2_8 - t_1_1 - 2000.000000 s_1_1 > -1986.228222
t_2_8 - t_2_1 - 2000.000000 s_2_1 > -1984.985400
t_1_2 - t_1_1 + 2000.000000 u_1_2_1 - 3.000000 s_1_1 + 3.000000 s_1_6 > 10.771778
t_1_1 - t_1_2 - 2000.000000 u_1_2_1 > -1988.783756
t_2_2 - t_2_1 + 2000.000000 u_2_2_1 - 3.000000 s_2_1 + 3.000000 s_2_6 > 12.014600
t_2_1 - t_2_2 - 2000.000000 u_2_2_1 > -1987.809000
t_1_2 - t_1_3 + 2000.000000 u_1_2_3 - 3.000000 s_1_3 + 3.000000 s_1_7 > 17.663200
t_1_3 - t_1_2 - 2000.000000 u_1_2_3 > -1988.783756
t_2_2 - t_2_3 + 2000.000000 u_2_2_3 - 3.000000 s_2_3 + 3.000000 s_2_7 > 16.714400
t_2_3 - t_2_2 - 2000.000000 u_2_2_3 > -1987.809000
t_1_2 - t_1_4 + 2000.000000 u_1_2_4 - 6.000000 s_1_4 + 6.000000 s_1_3 > 9.214256
t_1_4 - t_1_2 - 2000.000000 u_1_2_4 > -1988.783756
t_2_2 - t_2_4 + 2000.000000 u_2_2_4 - 6.000000 s_2_4 + 6.000000 s_2_3 > 11.986600
t_2_4 - t_2_2 - 2000.000000 u_2_2_4 > -1987.809000
t_1_2 - t_1_5 + 2000.000000 u_1_2_5 - 6.000000 s_1_5 + 6.000000 s_1_7 > 13.950100
t_1_5 - t_1_2 - 2000.000000 u_1_2_5 > -1988.783756
t_2_2 - t_2_5 + 2000.000000 u_2_2_5 - 6.000000 s_2_5 + 6.000000 s_2_7 > 12.548400
t_2_5 - t_2_2 - 2000.000000 u_2_2_5 > -1987.809000
t_1_2 - t_1_6 + 2000.000000 u_1_2_6 > 39.628900
t_1_6 - t_1_2 - 2000.000000 u_1_2_6 > -1988.783756
t_2_2 - t_2_6 + 2000.000000 u_2_2_6 > 15.034300
t_2_6 - t_2_2 - 2000.000000 u_2_2_6 > -1987.809000
t_1_2 - t_1_7 - 2000.000000 s_1_7 > -1958.027400
t_1_2 - t_2_7 - 2000.000000 s_2_7 > -1981.984800
t_2_2 - t_1_7 - 2000.000000 s_1_7 > -1958.027400
t_2_2 - t_2_7 - 2000.000000 s_2_7 > -1981.984800
t_1_8 - t_1_2 - 2000.000000 s_1_2 > -1985.783756
t_1_8 - t_2_2 - 2000.000000 s_2_2 > -1984.809000
t_2_8 - t_1_2 - 2000.000000 s_1_2 > -1985.783756
t_2_8 - t_2_2 - 2000.000000 s_2_2 > -1984.809000
t_1_3 - t_1_1 + 2000.000000 u_1_3_1 - 3.000000 s_1_1 + 3.000000 s_1_6 > 10.771778
t_1_1 - t_1_3 - 2000.000000 u_1_3_1 > -1982.336800
t_2_3 - t_2_1 + 2000.000000 u_2_3_1 - 3.000000 s_2_1 + 3.000000 s_2_6 > 12.014600
t_2_1 - t_2_3 - 2000.000000 u_2_3_1 > -1983.285600
t_1_3 - t_1_2 + 2000.000000 u_1_3_2 - 3.000000 s_1_2 + 3.000000 s_1_7 > 11.216244
t_1_2 - t_1_3 - 2000.000000 u_1_3_2 > -1982.336800
t_2_3 - t_2_2 + 2000.000000 u_2_3_2 - 3.000000 s_2_2 + 3.000000 s_2_7 > 12.191000
t_2_2 - t_2_3 - 2000.000000 u_2_3_2 > -1983.285600
t_1_4 - t_1_3 - 2000.000000 s_1_3 > -1979.336800
t_1_4 - t_2_3 - 2000.000000 s_2_3 > -1980.285600
t_2_4 - t_1_3 - 2000.000000 s_1_3 > -1979.336800
t_2_4 - t_2_3 - 2000.000000 s_2_3 > -1980.285600
t_1_3 - t_1_5 + 2000.000000 u_1_3_5 - 6.000000 s_1_5 + 6.000000 s_1_7 > 13.950100
t_1_5 - t_1_3 - 2000.000000 u_1_3_5 > -1982.336800
t_2_3 - t_2_5 + 2000.000000 u_2_3_5 - 6.000000 s_2_5 + 6.000000 s_2_7 > 12.548400
t_2_5 - t_2_3 - 2000.000000 u_2_3_5 > -1983.285600
t_1_3 - t_1_6 + 2000.000000 u_1_3_6 > 39.628900
t_1_6 - t_1_3 - 2000.000000 u_1_3_6 > -1982.336800
t_2_3 - t_2_6 + 2000.000000 u_2_3_6 > 15.034300
t_2_6 - t_2_3 - 2000.000000 u_2_3_6 > -1983.285600
t_1_3 - t_1_7 - 2000.000000 s_1_7 > -1958.027400
t_1_3 - t_2_7 - 2000.000000 s_2_7 > -1981.984800
t_2_3 - t_1_7 - 2000.000000 s_1_7 > -1958.027400
t_2_3 - t_2_7 - 2000.000000 s_2_7 > -1981.984800
t_1_8 - t_1_3 - 2000.000000 s_1_3 > -1979.336800
t_1_8 - t_2_3 - 2000.000000 s_2_3 > -1980.285600
t_2_8 - t_1_3 - 2000.000000 s_1_3 > -1979.336800
t_2_8 - t_2_3 - 2000.000000 s_2_3 > -1980.285600
t_1_4 - t_1_1 + 2000.000000 u_1_4_1 - 3.000000 s_1_1 + 3.000000 s_1_6 > 10.771778
t_1_1 - t_1_4 - 2000.000000 u_1_4_1 > -1990.785744
t_2_4 - t_2_1 + 2000.000000 u_2_4_1 - 3.000000 s_2_1 + 3.000000 s_2_6 > 12.014600
t_2_1 - t_2_4 - 2000.000000 u_2_4_1 > -1988.013400
t_1_4 - t_1_2 + 2000.000000 u_1_4_2 - 3.000000 s_1_2 + 3.000000 s_1_7 > 11.216244
t_1_2 - t_1_4 - 2000.000000 u_1_4_2 > -1990.785744
t_2_4 - t_2_2 + 2000.000000 u_2_4_2 - 3.000000 s_2_2 + 3.000000 s_2_7 > 12.191000
t_2_2 - t_2_4 - 2000.000000 u_2_4_2 > -1988.013400
t_1_4 - t_1_3 - 2000.000000 s_1_3 > -1979.336800
t_1_4 - t_2_3 - 2000.000000 s_2_3 > -1980.285600
t_2_4 - t_1_3 - 2000.000000 s_1_3 > -1979.336800
t_2_4 - t_2_3 - 2000.000000 s_2_3 > -1980.285600
t_1_4 - t_1_5 + 2000.000000 u_1_4_5 - 6.000000 s_1_5 + 6.000000 s_1_7 > 13.950100
t_1_5 - t_1_4 - 2000.000000 u_1_4_5 > -1990.785744
t_2_4 - t_2_5 + 2000.000000 u_2_4_5 - 6.000000 s_2_5 + 6.000000 s_2_7 > 12.548400
t_2_5 - t_2_4 - 2000.000000 u_2_4_5 > -1988.013400
t_1_4 - t_1_6 + 2000.000000 u_1_4_6 > 39.628900
t_1_6 - t_1_4 - 2000.000000 u_1_4_6 > -1990.785744
t_2_4 - t_2_6 + 2000.000000 u_2_4_6 > 15.034300
t_2_6 - t_2_4 - 2000.000000 u_2_4_6 > -1988.013400
t_1_4 - t_1_7 - 2000.000000 s_1_7 > -1958.027400
t_1_4 - t_2_7 - 2000.000000 s_2_7 > -1981.984800
t_2_4 - t_1_7 - 2000.000000 s_1_7 > -1958.027400
t_2_4 - t_2_7 - 2000.000000 s_2_7 > -1981.984800
t_1_8 - t_1_4 - 2000.000000 s_1_4 > -1984.785744
t_1_8 - t_2_4 - 2000.000000 s_2_4 > -1982.013400
t_2_8 - t_1_4 - 2000.000000 s_1_4 > -1984.785744
t_2_8 - t_2_4 - 2000.000000 s_2_4 > -1982.013400
t_1_5 - t_1_1 + 2000.000000 u_1_5_1 - 3.000000 s_1_1 + 3.000000 s_1_6 > 10.771778
t_1_1 - t_1_5 - 2000.000000 u_1_5_1 > -1986.049900
t_2_5 - t_2_1 + 2000.000000 u_2_5_1 - 3.000000 s_2_1 + 3.000000 s_2_6 > 12.014600
t_2_1 - t_2_5 - 2000.000000 u_2_5_1 > -1987.451600
t_1_5 - t_1_2 + 2000.000000 u_1_5_2 - 3.000000 s_1_2 + 3.000000 s_1_7 > 11.216244
t_1_2 - t_1_5 - 2000.000000 u_1_5_2 > -1986.049900
t_2_5 - t_2_2 + 2000.000000 u_2_5_2 - 3.000000 s_2_2 + 3.000000 s_2_7 > 12.191000
t_2_2 - t_2_5 - 2000.000000 u_2_5_2 > -1987.451600
t_1_5 - t_1_3 + 2000.000000 u_1_5_3 - 3.000000 s_1_3 + 3.000000 s_1_7 > 17.663200
t_1_3 - t_1_5 - 2000.000000 u_1_5_3 > -1986.049900
t_2_5 - t_2_3 + 2000.000000 u_2_5_3 - 3.000000 s_2_3 + 3.000000 s_2_7 > 16.714400
t_2_3 - t_2_5 - 2000.000000 u_2_5_3 > -1987.451600
t_1_5 - t_1_4 + 2000.000000 u_1_5_4 - 6.000000 s_1_4 + 6.000000 s_1_3 > 9.214256
t_1_4 - t_1_5 - 2000.000000 u_1_5_4 > -1986.049900
t_2_5 - t_2_4 + 2000.000000 u_2_5_4 - 6.000000 s_2_4 + 6.000000 s_2_3 > 11.986600
t_2_4 - t_2_5 - 2000.000000 u_2_5_4 > -1987.451600
t_1_5 - t_1_6 - 2000.000000 s_1_6 > -1957.371100
t_1_5 - t_2_6 - 2000.000000 s_2_6 > -1981.965700
t_2_5 - t_1_6 - 2000.000000 s_1_6 > -1957.371100
t_2_5 - t_2_6 - 2000.000000 s_2_6 > -1981.965700
t_1_5 - t_1_7 - 2000.000000 s_1_7 > -1958.027400
t_1_5 - t_2_7 - 2000.000000 s_2_7 > -1981.984800
t_2_5 - t_1_7 - 2000.000000 s_1_7 > -1958.027400
t_2_5 - t_2_7 - 2000.000000 s_2_7 > -1981.984800
t_1_8 - t_1_5 - 2000.000000 s_1_5 > -1980.049900
t_1_8 - t_2_5 - 2000.000000 s_2_5 > -1981.451600
t_2_8 - t_1_5 - 2000.000000 s_1_5 > -1980.049900
t_2_8 - t_2_5 - 2000.000000 s_2_5 > -1981.451600
t_1_1 - t_1_6 - 2000.000000 s_1_6 > -1957.371100
t_1_1 - t_2_6 - 2000.000000 s_2_6 > -1981.965700
t_2_1 - t_1_6 - 2000.000000 s_1_6 > -1957.371100
t_2_1 - t_2_6 - 2000.000000 s_2_6 > -1981.965700
t_1_6 - t_1_2 + 2000.000000 u_1_6_2 - 3.000000 s_1_2 + 3.000000 s_1_7 > 11.216244
t_1_2 - t_1_6 - 2000.000000 u_1_6_2 > -1960.371100
t_2_6 - t_2_2 + 2000.000000 u_2_6_2 - 3.000000 s_2_2 + 3.000000 s_2_7 > 12.191000
t_2_2 - t_2_6 - 2000.000000 u_2_6_2 > -1984.965700
t_1_6 - t_1_3 + 2000.000000 u_1_6_3 - 3.000000 s_1_3 + 3.000000 s_1_7 > 17.663200
t_1_3 - t_1_6 - 2000.000000 u_1_6_3 > -1960.371100
t_2_6 - t_2_3 + 2000.000000 u_2_6_3 - 3.000000 s_2_3 + 3.000000 s_2_7 > 16.714400
t_2_3 - t_2_6 - 2000.000000 u_2_6_3 > -1984.965700
t_1_6 - t_1_4 + 2000.000000 u_1_6_4 - 6.000000 s_1_4 + 6.000000 s_1_3 > 9.214256
t_1_4 - t_1_6 - 2000.000000 u_1_6_4 > -1960.371100
t_2_6 - t_2_4 + 2000.000000 u_2_6_4 - 6.000000 s_2_4 + 6.000000 s_2_3 > 11.986600
t_2_4 - t_2_6 - 2000.000000 u_2_6_4 > -1984.965700
t_1_5 - t_1_6 - 2000.000000 s_1_6 > -1957.371100
t_1_5 - t_2_6 - 2000.000000 s_2_6 > -1981.965700
t_2_5 - t_1_6 - 2000.000000 s_1_6 > -1957.371100
t_2_5 - t_2_6 - 2000.000000 s_2_6 > -1981.965700
t_1_6 - t_1_7 + 2000.000000 u_1_6_7 > 38.972600
t_1_7 - t_1_6 - 2000.000000 u_1_6_7 > -1960.371100
t_2_6 - t_2_7 + 2000.000000 u_2_6_7 > 15.015200
t_2_7 - t_2_6 - 2000.000000 u_2_6_7 > -1984.965700
t_1_7 - t_1_1 + 2000.000000 u_1_7_1 - 3.000000 s_1_1 + 3.000000 s_1_6 > 10.771778
t_1_1 - t_1_7 - 2000.000000 u_1_7_1 > -1961.027400
t_2_7 - t_2_1 + 2000.000000 u_2_7_1 - 3.000000 s_2_1 + 3.000000 s_2_6 > 12.014600
t_2_1 - t_2_7 - 2000.000000 u_2_7_1 > -1984.984800
t_1_2 - t_1_7 - 2000.000000 s_1_7 > -1958.027400
t_1_2 - t_2_7 - 2000.000000 s_2_7 > -1981.984800
t_2_2 - t_1_7 - 2000.000000 s_1_7 > -1958.027400
t_2_2 - t_2_7 - 2000.000000 s_2_7 > -1981.984800
t_1_3 - t_1_7 - 2000.000000 s_1_7 > -1958.027400
t_1_3 - t_2_7 - 2000.000000 s_2_7 > -1981.984800
t_2_3 - t_1_7 - 2000.000000 s_1_7 > -1958.027400
t_2_3 - t_2_7 - 2000.000000 s_2_7 > -1981.984800
t_1_4 - t_1_7 - 2000.000000 s_1_7 > -1958.027400
t_1_4 - t_2_7 - 2000.000000 s_2_7 > -1981.984800
t_2_4 - t_1_7 - 2000.000000 s_1_7 > -1958.027400
t_2_4 - t_2_7 - 2000.000000 s_2_7 > -1981.984800
t_1_5 - t_1_7 - 2000.000000 s_1_7 > -1958.027400
t_1_5 - t_2_7 - 2000.000000 s_2_7 > -1981.984800
t_2_5 - t_1_7 - 2000.000000 s_1_7 > -1958.027400
t_2_5 - t_2_7 - 2000.000000 s_2_7 > -1981.984800
t_1_7 - t_1_6 + 2000.000000 u_1_7_6 > 39.628900
t_1_6 - t_1_7 - 2000.000000 u_1_7_6 > -1961.027400
t_2_7 - t_2_6 + 2000.000000 u_2_7_6 > 15.034300
t_2_6 - t_2_7 - 2000.000000 u_2_7_6 > -1984.984800
t_1_8 - t_1_1 - 2000.000000 s_1_1 > -1986.228222
t_1_8 - t_2_1 - 2000.000000 s_2_1 > -1984.985400
t_2_8 - t_1_1 - 2000.000000 s_1_1 > -1986.228222
t_2_8 - t_2_1 - 2000.000000 s_2_1 > -1984.985400
t_1_8 - t_1_2 - 2000.000000 s_1_2 > -1985.783756
t_1_8 - t_2_2 - 2000.000000 s_2_2 > -1984.809000
t_2_8 - t_1_2 - 2000.000000 s_1_2 > -1985.783756
t_2_8 - t_2_2 - 2000.000000 s_2_2 > -1984.809000
t_1_8 - t_1_3 - 2000.000000 s_1_3 > -1979.336800
t_1_8 - t_2_3 - 2000.000000 s_2_3 > -1980.285600
t_2_8 - t_1_3 - 2000.000000 s_1_3 > -1979.336800
t_2_8 - t_2_3 - 2000.000000 s_2_3 > -1980.285600
t_1_8 - t_1_4 - 2000.000000 s_1_4 > -1984.785744
t_1_8 - t_2_4 - 2000.000000 s_2_4 > -1982.013400
t_2_8 - t_1_4 - 2000.000000 s_1_4 > -1984.785744
t_2_8 - t_2_4 - 2000.000000 s_2_4 > -1982.013400
t_1_8 - t_1_5 - 2000.000000 s_1_5 > -1980.049900
t_1_8 - t_2_5 - 2000.000000 s_2_5 > -1981.451600
t_2_8 - t_1_5 - 2000.000000 s_1_5 > -1980.049900
t_2_8 - t_2_5 - 2000.000000 s_2_5 > -1981.451600
Binary
s_1_1
s_2_1
s_1_2
s_2_2
s_1_3
s_2_3
s_1_4
s_2_4
s_1_5
s_2_5
s_1_6
s_2_6
s_1_7
s_2_7
s_1_8
s_2_8
u_1_1_2
u_2_1_2
u_1_1_3
u_2_1_3
u_1_1_4
u_2_1_4
u_1_1_5
u_2_1_5
u_1_1_7
u_2_1_7
u_1_2_1
u_2_2_1
u_1_2_3
u_2_2_3
u_1_2_4
u_2_2_4
u_1_2_5
u_2_2_5
u_1_2_6
u_2_2_6
u_1_3_1
u_2_3_1
u_1_3_2
u_2_3_2
u_1_3_5
u_2_3_5
u_1_3_6
u_2_3_6
u_1_4_1
u_2_4_1
u_1_4_2
u_2_4_2
u_1_4_5
u_2_4_5
u_1_4_6
u_2_4_6
u_1_5_1
u_2_5_1
u_1_5_2
u_2_5_2
u_1_5_3
u_2_5_3
u_1_5_4
u_2_5_4
u_1_6_2
u_2_6_2
u_1_6_3
u_2_6_3
u_1_6_4
u_2_6_4
u_1_6_7
u_2_6_7
u_1_7_1
u_2_7_1
u_1_7_6
u_2_7_6

End
